c Generated map
c Size: 8 * 8, weights in range: 1 to 10, walls: True, with ratio 0.1
c dim 6 of 9
c
p sp 64 92
c graph contains 64 nodes and 92 arcs
c
a 1 9 1
a 9 1 1
a 1 2 4
a 2 1 4
a 2 3 7
a 3 2 7
a 3 11 3
a 11 3 3
a 5 13 4
a 13 5 4
a 5 6 9
a 6 5 9
a 6 14 9
a 14 6 9
a 8 16 4
a 16 8 4
a 9 17 6
a 17 9 6
a 11 19 5
a 19 11 5
a 11 12 6
a 12 11 6
a 12 20 9
a 20 12 9
a 12 13 5
a 13 12 5
a 13 21 10
a 21 13 10
a 13 14 4
a 14 13 4
a 14 22 9
a 22 14 9
a 16 24 9
a 24 16 9
a 17 25 2
a 25 17 2
a 17 18 4
a 18 17 4
a 18 26 6
a 26 18 6
a 18 19 2
a 19 18 2
a 19 27 9
a 27 19 9
a 19 20 6
a 20 19 6
a 20 28 1
a 28 20 1
a 20 21 8
a 21 20 8
a 21 29 8
a 29 21 8
a 21 22 9
a 22 21 9
a 22 30 4
a 30 22 4
a 22 23 1
a 23 22 1
a 23 31 6
a 31 23 6
a 23 24 1
a 24 23 1
a 24 32 10
a 32 24 10
a 25 33 8
a 33 25 8
a 25 26 5
a 26 25 5
a 26 34 9
a 34 26 9
a 26 27 5
a 27 26 5
a 27 35 7
a 35 27 7
a 27 28 7
a 28 27 7
a 28 36 2
a 36 28 2
a 28 29 9
a 29 28 9
a 29 30 10
a 30 29 10
a 30 38 10
a 38 30 10
a 30 31 10
a 31 30 10
a 31 39 4
a 39 31 4
a 31 32 8
a 32 31 8
a 32 40 8
a 40 32 8
a 33 41 10
a 41 33 10
a 33 34 6
a 34 33 6
a 34 42 5
a 42 34 5
a 34 35 9
a 35 34 9
a 35 43 4
a 43 35 4
a 35 36 4
a 36 35 4
a 36 44 7
a 44 36 7
a 38 46 2
a 46 38 2
a 38 39 6
a 39 38 6
a 39 47 9
a 47 39 9
a 39 40 3
a 40 39 3
a 40 48 4
a 48 40 4
a 41 49 9
a 49 41 9
a 41 42 4
a 42 41 4
a 42 50 4
a 50 42 4
a 42 43 2
a 43 42 2
a 43 51 10
a 51 43 10
a 43 44 9
a 44 43 9
a 44 52 3
a 52 44 3
a 44 45 2
a 45 44 2
a 45 53 6
a 53 45 6
a 45 46 8
a 46 45 8
a 46 54 4
a 54 46 4
a 46 47 6
a 47 46 6
a 47 55 10
a 55 47 10
a 47 48 7
a 48 47 7
a 48 56 7
a 56 48 7
a 49 57 5
a 57 49 5
a 49 50 9
a 50 49 9
a 50 51 8
a 51 50 8
a 51 59 1
a 59 51 1
a 51 52 5
a 52 51 5
a 52 60 2
a 60 52 2
a 52 53 3
a 53 52 3
a 53 61 4
a 61 53 4
a 53 54 9
a 54 53 9
a 54 62 6
a 62 54 6
a 54 55 3
a 55 54 3
a 55 63 4
a 63 55 4
a 55 56 3
a 56 55 3
a 56 64 2
a 64 56 2
a 59 60 5
a 60 59 5
a 60 61 5
a 61 60 5
a 61 62 6
a 62 61 6
a 62 63 6
a 63 62 6
a 63 64 8
a 64 63 8
